
 102   30
  10   10   10   10   10   10   10   10   10   10   10   10   10   10   10   10   10   10   10   10   10   10   10   10   10   10   10   10   10   10

   0   0   0   0   0   0   0   0   0   0   0   0   0   0   0   0   0   0   0   0   0   0   0   0   0   0   0   0   0   0   0  25 2 3 5 6 7 8 9 10 11 13 14 15 16 17 18 19 20 21 22 29 31 32 36 40 59 
   5   0   1   0   2   0   0   0   0   0   1   0   0   0   0   0   0   0   0   0   5   0   0   1   0   0   0   0   0   0   1  13 67 53 46 43 42 37 35 34 30 28 26 25 4 
   5   0   0   0   0   0   0   0   0   2   0   0   0   0   0   0   0   0   0   0   0   0   0   7   0   0   0   0   1   0   0  12 101 67 62 55 53 50 47 46 41 35 26 23 
   2   0   0   0   0   0   0   0   2   0   0   0   0   0   0   0   0   0   0   2   8   0   1   5   0   0   0   0   0   0   0  16 101 99 97 91 89 72 66 64 62 58 55 50 47 45 27 24 
   3   1   0   0   0   0   0   0   7   0   0   1   1   0   0   0   0   0   0   0   0   0   0   8   0   5   1   0   0   0   0  20 101 97 96 95 93 80 67 66 63 62 58 56 54 53 52 50 49 43 35 33 
   8   0   8   0   0   3   0   0  10   0   0   0   0   0   0   0   0   0   1   0   0   0   0   0   0   0   0   0   0   0   0   8 97 80 56 52 50 39 28 12 
   5   0   0   0   9   0   0   0   0   0   0   0   0   0   0   0   0   0   0   5   4   1   0   0   0   0   0   0   0   0   0  13 101 98 95 71 67 61 53 50 47 43 34 27 26 
   9   0  10   1   0   0   0   0   0   0   7   0   0   0   1   0   1   0   0   6  10   0   0   0   0   0   0   0   0   3   4  20 96 93 91 90 86 80 65 63 61 60 58 57 56 54 52 48 46 44 43 42 
   7   0   0   0   0   0   0   0   5   0   0   0   0   0   0   0   0   0   0  10   0   0   4   0   0   0   0   0   0   2   3  19 101 100 93 91 90 89 86 80 71 65 62 61 60 54 52 48 42 41 38 
   1   9   0   0   0   0   0   0   0   0   0   3   6   0   0   0   0   0   6   0   0   0   9   0   0   0   0   0   0   0   0  18 99 95 93 80 70 67 66 65 64 63 62 61 60 58 54 53 49 30 
   1   5   0   0   0   0   0   0   0   0   0   0   0   0   0   0   0   1   0   6   0   0   0   0   0   0   0   0   0   3   0  16 92 80 71 69 67 66 63 62 56 55 50 49 48 45 43 37 
   9   0   0   5   0   0   0   4   6   0   0   0   0   0   0   0   0   0   0   0   0  10   0   7   0   0   0   0   0   6   0  13 99 95 71 66 65 64 62 60 55 54 49 47 34 
  10   0   4   0   0   0   2   0   6   0   0   0   0   0   0   0   0   0   0   0   0   0   0   0   0   0   0   0   0   0   0  15 101 95 93 91 88 87 86 72 63 54 51 48 45 44 37 
   3   0   0   0   0   6   0   0   0   0   0   0   0   0   0   0   0   0   0   0   0   0   0   0   0   0   7   0   0  10   0  21 101 100 95 94 93 92 91 85 71 70 69 66 65 63 61 60 53 50 48 46 43 
   4   0   0   0   0   0   0   7   0   0   0  10   0   0   0   3   0   0   0   0   0   2   0   5   0   0   5   0   0   0   0   9 95 70 64 63 62 60 49 39 30 
   9   0   0   0   0   0   0   0   0   0   0   4   0   1   0   0   0   0   0   0   0   0   6   0   1   0   0   0   0   0   0  23 100 99 98 96 95 94 93 91 89 88 87 86 83 72 68 67 63 61 60 56 51 48 44 
   9   0   0   7   0   0   0   8   7   0   5   0   0   6   0   6   0   0   0   0   0   0   0   0   0   3   8   0   0   0   0  21 100 98 97 96 94 93 91 87 86 80 69 66 63 60 56 55 53 52 48 45 43 
   7   0   0   0   0   0   0   0   0   0   0   0   9   0   0   0   0   0   3   0   0   0   0   9   0   3   0   0   0   0   0  16 98 97 96 95 94 90 88 87 86 84 80 70 64 63 43 39 
   1   0   0   0   0   0   0   0   0   0   0   0   0   0   0  10   0   0   0   0   0   0   0   0   0   0   0   0   0   0   0  13 99 98 97 95 91 89 88 71 63 60 54 53 34 
   5   0   0   7   0   0   0   0   0   0   0   0   0   0   0   0   0   0   0   0   0  10   0   0   0  10   0   0   9   0   0  12 98 96 95 87 86 80 71 63 51 46 45 39 
   6   0   0   0   0   6   0   0   0   0   0   0   0   0   0   0   7   0   0   9   0   0   0   0   0   0   0   0   0   4   0  18 100 99 98 94 93 92 91 89 87 86 72 71 63 61 60 56 46 45 
   6   0   0   0   0   0   4   0   0   0   0  10   0   0   0   0   0   0   0   0   6   0   0   0   0   0   8   0   0   0   0  13 98 95 91 89 83 71 67 63 61 60 50 45 34 
   1   6  10   0   0   0   8   0   0   0   6   0   0   0   0   0   0   0   0   5   0   0   0   0   0   0   0   0   0   8   0  18 100 98 97 95 94 93 92 91 88 87 86 69 66 65 61 60 48 43 
   8   0   0   0   6   0   0   0   0   0   6   0   0   0   0   0   0   0   0   0   0   0   0   0   0   0   0   1   0   9   0  18 100 98 96 95 94 92 87 86 71 70 68 65 63 61 60 56 54 48 
   2   0   0   6   0   0   4   0   0   0   0   0   0   4   0   0   0   0   0   0   0   0   0   0   0   0   0   0   4   0   9  14 99 96 90 86 85 78 71 70 68 64 63 60 58 49 
   8   0   0   0   0   0   0   0   0   0   0   5   0   0   0   4   7   6   0   0  10   0   0   0   0   0   0   0   0   0   0  16 97 93 92 91 90 89 87 83 80 75 70 69 68 64 60 56 
   3   0   0   0   0   7   0   0   0   0   0   0   0   0   0   0   0   0   0   0   5   0   0   0   0   0   0   0   0   0   0  14 100 94 93 88 87 86 85 80 77 70 69 63 60 51 
   7   0   0   0   0   0   0   0   0   0   0   0   0   0   0   0   0   0   0   0   0   0   7   0   0   0   5   0   0   0   0  14 93 92 91 90 86 85 83 82 70 68 65 63 60 48 
   2   0   9   0   0   0   0   5   0   5   0   0   0   0   0   7   0   0   7   0   0   4   0   5   0   6   0   0   0   0   0  12 95 93 92 88 83 80 69 68 63 60 56 48 
   7   2   0   0   0   5   0  10   0   0   0   0   0   0   5   0   0   0   0   0   0   0   0   0   0   0   0   0   0   7   8  11 97 96 94 91 86 83 81 71 68 56 51 
   5   0   0   0   0   0   0   0   0   0   0   0   0   0   7   0   0   0   0   0   0   0   0   0   0   0   8   0   0   0   0  17 98 96 95 94 93 92 91 90 86 85 82 81 78 76 73 64 61 
   7   0   0   0   0   0   0   0   0   0   0   0   0   0   5   0   0   0   0   0   0   0   0   0   0   0   0   6   0   0   0  14 98 97 95 90 89 88 87 86 78 71 69 68 63 60 
   8   0   0   0   0   0   0   0   0   0   0   0   0   0   0   0   9   0   0   0   0   0   0   0   0   0   0   0   0   0   0  15 100 92 90 87 86 85 83 81 78 73 71 70 69 68 64 
   7   0   0   0   0   0   0   0   3   0   6   9   0   0   0   0   0   0   4   0   3   0   7   0   0   0   0   0   7   0   0  12 100 96 94 92 87 86 82 81 70 69 68 48 
   4   0   0   0   0   8   6   0   0   6   0   0   0   4   0   0   0   0   0   0   0   0   0   3   0   5   0   0   0   0   0  11 99 88 86 83 81 77 71 70 69 60 51 
   6   0   0   0   0   2   0   4   0   0   0   0   0   0   0   0   0   0   0   8   0   0   0   8   0   6   0   0   0   0   0  11 97 93 91 88 86 85 83 81 71 60 48 
   9   0   0   0   0   0   0   0   0   0   0   0   0   6   0   0   0   0   9   0   6   7   5   0   0   0   0   0   0   0   0  13 100 97 96 89 85 82 81 79 78 76 65 64 60 
   2   0   0   0   0   0   0   0   0   0   0   0   0   0   0   5   0   0   0   0   0   0   0   0   0   0   0   0   0   0   0  10 95 92 88 84 78 70 69 68 63 58 
   5   0   0   0   0   0   0   0   0   0   0   5   0   6   0   0   0   0   3   0   0   0   0   0   7   0   0   0   0   0   0   9 93 92 91 89 81 78 68 65 54 
  10   0   0   0   0   0   0   0   0   0   0   0   0   0   0   0   0   0   0   0   0   7   0   0   0   0   0   0   0   0   0  12 99 93 89 87 83 81 79 78 77 75 69 60 
   3   0   5   0   0   0   0   0   0   0   0   0   0   0   0   0   7   0   0   0   0   0   0   0   0   0   7   0   0   0  10  11 99 97 96 95 85 83 82 78 75 73 64 
  10   8   0   0   0   0   0   4   0   0   0   0   0   0   0   0   0   0   0   0   0   0   0   8   0   0   0   0   0   0   0  11 97 94 88 87 84 82 81 79 76 74 73 
   3   0   0   0   0   0   0   5   0   0   0   0   6   0   0   0   8   0   0   5   0   0   0   0   0   0   5   0   4   0   0   9 99 89 83 82 81 77 75 73 68 
   3   0   0   0   0   0   0   0   5   0   0   0   0   0   0   0   5   0   0   0   0   0   0   0   0   0   0   0   0   0   0   9 92 84 79 78 77 75 74 73 71 
   5   5   0   0   0   0   0   0   0   0   0   0   0   7   9   0   0   0   0   0   0   0   0   5   0   0   0   0   0   0   7   8 81 78 77 76 75 73 70 68 
   5   0   4  10   0   0   0   0   0   0   0   0   0   7   0   0   2   9   0   0   0   0   0   0   0   0   0   0   0   0   0   7 88 83 81 78 75 73 64 
   3   0   0   0   0   0   0   6   0   0   0   0   0   0   9   9   0   0   0   0   0   0   0   0   0   0   0   0   0   0   0   7 93 85 78 76 74 73 63 
   4   0   0   0   0   0   8   6   7   0   7   0   0   8   0   5   0   0   0   0   0   0   0   0   0   7   0   0   0   0   0   8 84 79 78 77 76 75 74 73 
   4   4   8   0   0   7   0   0   0   0   0   0   0   0   0   0   0   0   0   0   0   0   0   4   0   0   0   0   0   0   7   8 98 94 91 89 87 83 74 73 
  10   0   0   0   0   0   0   6   0   6   0   0   0   0   0   0   0   0   0   0   5   0   0   6   0   0   0   6   0   0   0   7 88 87 86 76 75 73 68 
   1   0   0   0   0   0   0   0   0   0   0  10   0   7   0   0   0   6   0   6   0   0   0   3   0   0   6   0   0   0   0   7 90 84 79 78 76 75 73 
   2   0   0   0   0   0   0   0   0   0   0   5   0   0   0   0   0   0   0   0   0   0   0   0   0   0   0   2   0   0   0   5 82 81 73 70 68 
  10   0   0   4   2   9   0   0   0   0   0   0   0   5   0   0   0   8   0   0   0   6   2   0   0   0   0   0   8   0   9   6 90 83 82 77 76 73 
   8   0   0   0   0   0   0   0   0   5   0   0   0   0   0   0   0   8   0   0   0   0   0   0   0   0   0   0   0   0   0   5 85 83 82 73 69 
   9   6   2   0   0   0   0   0   7   0   0   0   5   0   0   0   0   0   0   0   0   0   0   0   0   0   0   0   9   0   0   5 90 81 79 76 68 
   8   0   0   0   7   0   0   0   0   0   0   0   5   3   0   0   0   0   8   0   0   0   0   0   0   0   0   3   0   0   0   5 85 82 78 77 73 
   1   0   0   0  10   6   0   0   4   7   0   0   0   0   0   0   0   0   0   0   0   0   0   0   0   0   0   9   0   0   0   5 95 84 83 76 73 
   9   0   2   0   0   0   0   6   0   0   0   0   0   0   0   0   0   0   0   0   0   7   0   0   0   0   0   0   0   0   0   4 77 76 74 73 
   3   0   0   0   0   0   0   0   0   0   0   2   0   0   0   0   0   0   0   0   0   5   0   0   0   0   0   0   0  10   0   4 89 83 80 77 
   4   0   0   0   0   0  10   0   0   0   0   0   0   0   0   0   0   0   0   0   0   0   0   0   0   0   0   0   0   0   0   3 84 74 73 
   4   0   0   0   6   0   0   0   0   0   0   0   0   0   0   4   0   0   5   0   0   0   0   0   7   4  10   0   0   0   0   3 79 75 74 
   7   0   0   0   0   0   0   0   0   0   0   0   8   8   0   0   0   0   0   0   0   0  10   4   0   0   0   0   0   0   5   3 88 82 75 
   4   0   0   0   0   0   0   0   0   0   0   0   0   0   0   0   6   0   0   0   0   0   0   0   5   6   0   0   6   0   0   2 81 75 
   6   0   0   5   0   0   0   0   0   0   0   0   0   0   0   0   0   0   8   0   4   3   0   0   9   0   0   8  10   0   0   2 77 74 
   1   0   0   0   0   0   0   0   0   0   0   0   0   0   0   0   0   0   0   5   0   0   0   0   0   0   0   0   0   0   2   2 75 73 
   2   0   0   0   0  10   0   0   0   0   0   0   0   0   0   0   0   0   8   0   0   0   8   6   0   0   0   0   0   0   0   2 83 79 
   3   0   0   0   0   0   0   0   0   0   0   0   0   5   0   0   0   0   0   0   0   0   0   0   0   0   0   0   0   0   0   2 85 74 
  10   9   0   0   0   0   4   0   0   6   0   0   0   0   0   0   0   0   0   0   0   0   0   0   0  10   0   0   0   0   0   1 74 
   1   0   0   0   0   0   0   0   0   0   0   0   0   0   0   0   7   0   6   0   0   0   0   0   5   0   0   8   0   5   0   1 76 
   2   9   0   0   0   0   0   0   0   0   0   0   0  10   0   0   0   0   0   0   0   0   0   0   0   0   0   0   0   0   0   1 79 
   8   0   0   0   0   0   0   0   0   0   0   0   0   0   0   0   0   0   0   0   0   0   0   0   0   0   0   0   0   0   0   1 82 
   2   0   0   0   0   0   0   0   0   0   0   0   5   0   0   0   0   0   0   0   0   6   0   8   0   0   1   0   4   0   0   1 80 
   9   8   9   0   7   0   0   0   0   0   9   0   0   0   0   5   0   0   0   0   0   0   0   0   0   0   0   0   0   5   0   1 102
   9   0  10   0   0   0   0   0   0  10   0   0   0   0   0   0   6   0   9   0   0   0   0   0   0   0   0   0   0   0   0   1 102
   6   0   0   0   0   0   0   0   0   0   0   0   0   0   0   6   0   0   9   0   6   0   0   7   0   9   0   0   0   0   0   1 102
  10   4   0   0   0   3   0   0   0   4   0   0   0   0   0   0   5   0   0   0   0   0   0   0   0   4   0   0   0   0   0   1 102
   2   0   0   0   0   0   0   7   0   0   0   5   0   0   0   0   0   0   0   0   0   0   0   6   0   0   0   0   0   0   0   1 102
   3   0   0   0   0   0   0   0   0  10   0   0   0   0   0   0   0   0   0   0   5   0   0   0   0   0   0   6   0   0   0   1 102
   8   0   0   0   0   0   0   0   0   0   0   5   0   0   0   0   0   0   0   0   0   0   0   0   0   0   0   0   0   0   0   1 102
   8   0   0   0   0   6   0   0   0   5   0   0   0   0   0   0   0   0   0   0   0   0   0   0   0   0   0   0   0   0   0   1 102
   5   0   0   5   0   0   0   0   0   0   0   0   0   0   0   0   6   0   0   0   0  10   0   0   0   0   0   0   0   0   0   1 102
   4   0   0   7   0   0   0   0   0   0   0   0   6   0   0   0   0   0   0   0   7   0   6   0   0   0   0   0   0   0   0   1 102
   5   0   0   0   0   0   0   0   0   6   0   0   0   0   0   0   0   6   0   0   0   0   0   0   7   0   0   0   0   0   7   1 102
   6   0   0   0   0   0   0   0   6   0   0   0   0   5   0   4   0   0   6   0   0   0   5   0   0   0   0   0   0   4   0   1 102
   1   0   0   0   7   0   0   0   0   0   0   0   0   0   0   0   0   0   0   0   0   6   0   0   0   0   0   0   0   0   0   1 102
  10   0   0   0   0   0   0   0   0   0   0   0   0   0   0   0   6   0   0   0   0   0   0   0   0   0   7   0   0   0   0   1 102
   8   0   0   0   0   0   0   0   0   0   0   0   0   0   0   0   0   0   0   0   0   0   0   0   0   0   0   0   0   0   0   1 102
   6   0   0   0   0   0   0   0   0   0   0   0   0   0   0   0   0   0   0   0   0   0   0   9   0   0   0   0   0   0   0   1 102
   4   0   0   0   0   0   0   0   0   0   0   0   0   0   0   0   0   0   0   0   0   6   0   0   0   0   0   0   0   0   0   1 102
  10   0   0   0   0   0   8   0   0   0   0   0   0   0   0   0   0   0   0   0   0   0   0   0   0   0   0   0   0   0   0   1 102
   5   0   0   0   0   0   0   0   0   0   0   7   0   0   0   0   0   0   5   5   0   0   0   7   0   0   0   0   0   8   0   1 102
   7   0   5   0   0   0   0   0   5   0   0   0   0   6   0   0   0   0   0   0   0   6   0   0   0   0   0   0   0   0   0   1 102
   5   0   0   0   0   0   0   0   0   0   0   0   0   9   0   0   0   0   0   0   0   0   0   0   6   0   0   9   4   0   0   1 102
   2   0   0   0   0   0   0   0   0   0   0   0   0   0   0   0   0   0   0   0   0   0   0   0   0   0   0  10   0   0   0   1 102
   5   0   0   0   0   0   0   0  10   0   0   9   9   0   0   0   0   4   0   0   0   0   0   0   0   0   0   0   0   0   0   1 102
   8   0   0   0   4   0   0   0   0   0   0   0   0   0   0   0   0   0   0   0   0   0   0   0   0   0   0   4   0   0   0   1 102
   6   0   3   0   0   0   0   0   0   0   0   0   0   0   0   0   0   0   5   0   0   0   0   7   0   0   0   0   0   0   0   1 102
   5   0   0   0   0   0   0   0   0   0   7   0   0   7   0   0   0   0   0   0   0   0   0   0   6   0   0   0   0   0   0   1 102
  10   0   0   0   0   0   6   0   0   0   0   0   0   0   0   0   0   0   0   0   0   0   0   0   7   0   0   0   0   0   0   1 102
  10   0   0   9   0   0   0   0   0   0   0   0   0   0   0   0   8   0   0   0   0   0   0   0   0   0   0   0   0   0   0   1 102
   3   8   0   0   0   0   0   0   0   0   0   0   0   6   0  10   0   0   0   0   0   0   8   0   0   0   0   6   0   0   0   1 102
   0   0   0   0   0   0   0   0   0   0   0   0   0   0   0   0   0   0   0   0   0   0   0   0   0   0   0   0   0   0   0   0 
